\ Model knapsack_80_1_2
\ LP format - for model browsing. Use MPS format to capture full model detail.
\ Signature: 0xf86d0bbf74a4bb8e
Minimize
  - 903 y[0] - 768 y[1] - 488 y[2] - 116 y[3] - 330 y[4] - 946 y[5]
   - 1007 y[6] - 426 y[7] - 1076 y[8] - 683 y[9] - 597 y[10] - 447 y[11]
   - 821 y[12] - 539 y[13] - 271 y[14] - 481 y[15] - 413 y[16] - 752 y[17]
   - 710 y[18] - 784 y[19] - 755 y[20] - 625 y[21] - 839 y[22] - 281 y[23]
   - 300 y[24] - 333 y[25] - 832 y[26] - 528 y[27] - 196 y[28] - 505 y[29]
   - 176 y[30] - 234 y[31] - 221 y[32] - 864 y[33] - 604 y[34] - 608 y[35]
   - 705 y[36] - 724 y[37] - 162 y[38] - 423 y[39] - 1021 y[40] - 443 y[41]
   - 915 y[42] - 1037 y[43] - 860 y[44] - 806 y[45] - 866 y[46] - 686 y[47]
   - 876 y[48] - 355 y[49] - 180 y[50] - 604 y[51] - 242 y[52] - 258 y[53]
   - 131 y[54] - 1093 y[55] - 333 y[56] - 972 y[57] - 603 y[58]
   - 1062 y[59] - 465 y[60] - 455 y[61] - 447 y[62] - 1046 y[63]
   - 675 y[64] - 774 y[65] - 265 y[66] - 421 y[67] - 252 y[68] - 493 y[69]
   - 173 y[70] - 875 y[71] - 332 y[72] - 363 y[73] - 616 y[74] - 685 y[75]
   - 252 y[76] - 464 y[77] - 538 y[78] - 489 y[79]
Subject To
 primal_upper: 803 y[0] + 668 y[1] + 388 y[2] + 16 y[3] + 230 y[4]
   + 846 y[5] + 907 y[6] + 326 y[7] + 976 y[8] + 583 y[9] + 497 y[10]
   + 347 y[11] + 721 y[12] + 439 y[13] + 171 y[14] + 381 y[15] + 313 y[16]
   + 652 y[17] + 610 y[18] + 684 y[19] + 655 y[20] + 525 y[21] + 739 y[22]
   + 181 y[23] + 200 y[24] + 233 y[25] + 732 y[26] + 428 y[27] + 96 y[28]
   + 405 y[29] + 76 y[30] + 134 y[31] + 121 y[32] + 764 y[33] + 504 y[34]
   + 508 y[35] + 605 y[36] + 624 y[37] + 62 y[38] + 323 y[39] + 921 y[40]
   + 343 y[41] + 815 y[42] + 937 y[43] + 760 y[44] + 706 y[45] + 766 y[46]
   + 586 y[47] + 776 y[48] + 255 y[49] + 80 y[50] + 504 y[51] + 142 y[52]
   + 158 y[53] + 31 y[54] + 993 y[55] + 233 y[56] + 872 y[57] + 503 y[58]
   + 962 y[59] + 365 y[60] + 355 y[61] + 347 y[62] + 946 y[63] + 575 y[64]
   + 674 y[65] + 165 y[66] + 321 y[67] + 152 y[68] + 393 y[69] + 73 y[70]
   + 775 y[71] + 232 y[72] + 263 y[73] + 516 y[74] + 585 y[75] + 152 y[76]
   + 364 y[77] + 438 y[78] + 389 y[79] + 80 z[0] + 67 z[1] + 39 z[2]
   + 2 z[3] + 23 z[4] + 85 z[5] + 91 z[6] + 33 z[7] + 98 z[8] + 58 z[9]
   + 50 z[10] + 35 z[11] + 72 z[12] + 44 z[13] + 17 z[14] + 38 z[15]
   + 31 z[16] + 65 z[17] + 61 z[18] + 68 z[19] + 66 z[20] + 52 z[21]
   + 74 z[22] + 18 z[23] + 20 z[24] + 23 z[25] + 73 z[26] + 43 z[27]
   + 10 z[28] + 40 z[29] + 8 z[30] + 13 z[31] + 12 z[32] + 76 z[33]
   + 50 z[34] + 51 z[35] + 60 z[36] + 62 z[37] + 6 z[38] + 32 z[39]
   + 92 z[40] + 34 z[41] + 82 z[42] + 94 z[43] + 76 z[44] + 71 z[45]
   + 77 z[46] + 59 z[47] + 78 z[48] + 26 z[49] + 8 z[50] + 50 z[51]
   + 14 z[52] + 16 z[53] + 3 z[54] + 99 z[55] + 23 z[56] + 87 z[57]
   + 50 z[58] + 96 z[59] + 36 z[60] + 36 z[61] + 35 z[62] + 95 z[63]
   + 58 z[64] + 67 z[65] + 16 z[66] + 32 z[67] + 15 z[68] + 39 z[69]
   + 7 z[70] + 78 z[71] + 23 z[72] + 26 z[73] + 52 z[74] + 58 z[75]
   + 15 z[76] + 36 z[77] + 44 z[78] + 39 z[79] <= 12632
 primal_lower0: - 17 y[0] - 124 y[1] - 95 y[2] - 76 y[3] - 64 y[4]
   - 45 y[5] - 111 y[6] - 65 y[7] - 46 y[8] - 130 y[9] - 99 y[10]
   - 20 y[11] - 65 y[12] - 162 y[13] - 78 y[14] - 23 y[15] - 7 y[16]
   - 121 y[17] - 102 y[18] - 150 y[19] - 103 y[20] - 43 y[21] - 92 y[22]
   - 67 y[23] - 23 y[24] - 96 y[25] - 87 y[26] - 156 y[27] - 160 y[28]
   - 164 y[29] - 38 y[30] - 16 y[31] - 41 y[32] - 115 y[33] - 32 y[34]
   - 138 y[35] - 57 y[36] - 85 y[37] - 110 y[38] - 155 y[39] - 11 y[40]
   - 124 y[41] - 65 y[42] - 89 y[43] - 10 y[44] - 148 y[45] - 129 y[46]
   - 111 y[47] - 122 y[48] - 110 y[49] - 30 y[50] - 144 y[51] - 75 y[52]
   - 108 y[53] - 26 y[54] - 67 y[55] - 133 y[56] - 121 y[57] - 11 y[58]
   - 128 y[59] - 82 y[60] - 127 y[61] - 113 y[62] - 21 y[63] - 109 y[64]
   - 40 y[65] - 40 y[66] - 139 y[67] - 17 y[68] - 121 y[69] - 157 y[70]
   - 120 y[71] - 24 y[72] - 132 y[73] - 118 y[74] - 162 y[75] - 163 y[76]
   - 83 y[77] - 109 y[78] - 44 y[79] + 166 u[0] + 187 u[1] + 951 u[2]
   + 55 u[3] + 657 u[4] + 909 u[5] + 670 u[6] + 469 u[7] + 779 u[8]
   + 390 u[9] + 388 u[10] + 474 u[11] + 692 u[12] + 454 u[13] + 230 u[14]
   + 692 u[15] + 156 u[16] + 811 u[17] + 661 u[18] + 763 u[19] + 562 u[20]
   + 276 u[21] + 206 u[22] + 148 u[23] + 451 u[24] + 608 u[25] + 623 u[26]
   + 659 u[27] + 267 u[28] + 396 u[29] + 279 u[30] + 765 u[31] + 708 u[32]
   + 739 u[33] + 867 u[34] + 779 u[35] + 880 u[36] + 279 u[37] + 633 u[38]
   + 18 u[39] + 540 u[40] + 974 u[41] + 106 u[42] + 440 u[43] + 995 u[44]
   + 401 u[45] + 769 u[46] + 209 u[47] + 203 u[48] + 790 u[49] + 275 u[50]
   + 895 u[51] + 129 u[52] + 93 u[53] + 66 u[54] + 824 u[55] + 668 u[56]
   + 191 u[57] + 234 u[58] + 161 u[59] + 72 u[60] + 826 u[61] + 958 u[62]
   + 633 u[63] + 386 u[64] + 857 u[65] + 40 u[66] + 824 u[67] + 259 u[68]
   + 632 u[69] + 508 u[70] + 62 u[71] + 75 u[72] + 862 u[73] + 343 u[74]
   + 544 u[75] + 299 u[76] + 651 u[77] + 769 u[78] + 788 u[79] <= 13349
 mccormick1[0]: - u[0] + z[0] <= 0
 mccormick1[1]: - u[1] + z[1] <= 0
 mccormick1[2]: - u[2] + z[2] <= 0
 mccormick1[3]: - u[3] + z[3] <= 0
 mccormick1[4]: - u[4] + z[4] <= 0
 mccormick1[5]: - u[5] + z[5] <= 0
 mccormick1[6]: - u[6] + z[6] <= 0
 mccormick1[7]: - u[7] + z[7] <= 0
 mccormick1[8]: - u[8] + z[8] <= 0
 mccormick1[9]: - u[9] + z[9] <= 0
 mccormick1[10]: - u[10] + z[10] <= 0
 mccormick1[11]: - u[11] + z[11] <= 0
 mccormick1[12]: - u[12] + z[12] <= 0
 mccormick1[13]: - u[13] + z[13] <= 0
 mccormick1[14]: - u[14] + z[14] <= 0
 mccormick1[15]: - u[15] + z[15] <= 0
 mccormick1[16]: - u[16] + z[16] <= 0
 mccormick1[17]: - u[17] + z[17] <= 0
 mccormick1[18]: - u[18] + z[18] <= 0
 mccormick1[19]: - u[19] + z[19] <= 0
 mccormick1[20]: - u[20] + z[20] <= 0
 mccormick1[21]: - u[21] + z[21] <= 0
 mccormick1[22]: - u[22] + z[22] <= 0
 mccormick1[23]: - u[23] + z[23] <= 0
 mccormick1[24]: - u[24] + z[24] <= 0
 mccormick1[25]: - u[25] + z[25] <= 0
 mccormick1[26]: - u[26] + z[26] <= 0
 mccormick1[27]: - u[27] + z[27] <= 0
 mccormick1[28]: - u[28] + z[28] <= 0
 mccormick1[29]: - u[29] + z[29] <= 0
 mccormick1[30]: - u[30] + z[30] <= 0
 mccormick1[31]: - u[31] + z[31] <= 0
 mccormick1[32]: - u[32] + z[32] <= 0
 mccormick1[33]: - u[33] + z[33] <= 0
 mccormick1[34]: - u[34] + z[34] <= 0
 mccormick1[35]: - u[35] + z[35] <= 0
 mccormick1[36]: - u[36] + z[36] <= 0
 mccormick1[37]: - u[37] + z[37] <= 0
 mccormick1[38]: - u[38] + z[38] <= 0
 mccormick1[39]: - u[39] + z[39] <= 0
 mccormick1[40]: - u[40] + z[40] <= 0
 mccormick1[41]: - u[41] + z[41] <= 0
 mccormick1[42]: - u[42] + z[42] <= 0
 mccormick1[43]: - u[43] + z[43] <= 0
 mccormick1[44]: - u[44] + z[44] <= 0
 mccormick1[45]: - u[45] + z[45] <= 0
 mccormick1[46]: - u[46] + z[46] <= 0
 mccormick1[47]: - u[47] + z[47] <= 0
 mccormick1[48]: - u[48] + z[48] <= 0
 mccormick1[49]: - u[49] + z[49] <= 0
 mccormick1[50]: - u[50] + z[50] <= 0
 mccormick1[51]: - u[51] + z[51] <= 0
 mccormick1[52]: - u[52] + z[52] <= 0
 mccormick1[53]: - u[53] + z[53] <= 0
 mccormick1[54]: - u[54] + z[54] <= 0
 mccormick1[55]: - u[55] + z[55] <= 0
 mccormick1[56]: - u[56] + z[56] <= 0
 mccormick1[57]: - u[57] + z[57] <= 0
 mccormick1[58]: - u[58] + z[58] <= 0
 mccormick1[59]: - u[59] + z[59] <= 0
 mccormick1[60]: - u[60] + z[60] <= 0
 mccormick1[61]: - u[61] + z[61] <= 0
 mccormick1[62]: - u[62] + z[62] <= 0
 mccormick1[63]: - u[63] + z[63] <= 0
 mccormick1[64]: - u[64] + z[64] <= 0
 mccormick1[65]: - u[65] + z[65] <= 0
 mccormick1[66]: - u[66] + z[66] <= 0
 mccormick1[67]: - u[67] + z[67] <= 0
 mccormick1[68]: - u[68] + z[68] <= 0
 mccormick1[69]: - u[69] + z[69] <= 0
 mccormick1[70]: - u[70] + z[70] <= 0
 mccormick1[71]: - u[71] + z[71] <= 0
 mccormick1[72]: - u[72] + z[72] <= 0
 mccormick1[73]: - u[73] + z[73] <= 0
 mccormick1[74]: - u[74] + z[74] <= 0
 mccormick1[75]: - u[75] + z[75] <= 0
 mccormick1[76]: - u[76] + z[76] <= 0
 mccormick1[77]: - u[77] + z[77] <= 0
 mccormick1[78]: - u[78] + z[78] <= 0
 mccormick1[79]: - u[79] + z[79] <= 0
 mccormick2[0]: - y[0] + z[0] <= 0
 mccormick2[1]: - y[1] + z[1] <= 0
 mccormick2[2]: - y[2] + z[2] <= 0
 mccormick2[3]: - y[3] + z[3] <= 0
 mccormick2[4]: - y[4] + z[4] <= 0
 mccormick2[5]: - y[5] + z[5] <= 0
 mccormick2[6]: - y[6] + z[6] <= 0
 mccormick2[7]: - y[7] + z[7] <= 0
 mccormick2[8]: - y[8] + z[8] <= 0
 mccormick2[9]: - y[9] + z[9] <= 0
 mccormick2[10]: - y[10] + z[10] <= 0
 mccormick2[11]: - y[11] + z[11] <= 0
 mccormick2[12]: - y[12] + z[12] <= 0
 mccormick2[13]: - y[13] + z[13] <= 0
 mccormick2[14]: - y[14] + z[14] <= 0
 mccormick2[15]: - y[15] + z[15] <= 0
 mccormick2[16]: - y[16] + z[16] <= 0
 mccormick2[17]: - y[17] + z[17] <= 0
 mccormick2[18]: - y[18] + z[18] <= 0
 mccormick2[19]: - y[19] + z[19] <= 0
 mccormick2[20]: - y[20] + z[20] <= 0
 mccormick2[21]: - y[21] + z[21] <= 0
 mccormick2[22]: - y[22] + z[22] <= 0
 mccormick2[23]: - y[23] + z[23] <= 0
 mccormick2[24]: - y[24] + z[24] <= 0
 mccormick2[25]: - y[25] + z[25] <= 0
 mccormick2[26]: - y[26] + z[26] <= 0
 mccormick2[27]: - y[27] + z[27] <= 0
 mccormick2[28]: - y[28] + z[28] <= 0
 mccormick2[29]: - y[29] + z[29] <= 0
 mccormick2[30]: - y[30] + z[30] <= 0
 mccormick2[31]: - y[31] + z[31] <= 0
 mccormick2[32]: - y[32] + z[32] <= 0
 mccormick2[33]: - y[33] + z[33] <= 0
 mccormick2[34]: - y[34] + z[34] <= 0
 mccormick2[35]: - y[35] + z[35] <= 0
 mccormick2[36]: - y[36] + z[36] <= 0
 mccormick2[37]: - y[37] + z[37] <= 0
 mccormick2[38]: - y[38] + z[38] <= 0
 mccormick2[39]: - y[39] + z[39] <= 0
 mccormick2[40]: - y[40] + z[40] <= 0
 mccormick2[41]: - y[41] + z[41] <= 0
 mccormick2[42]: - y[42] + z[42] <= 0
 mccormick2[43]: - y[43] + z[43] <= 0
 mccormick2[44]: - y[44] + z[44] <= 0
 mccormick2[45]: - y[45] + z[45] <= 0
 mccormick2[46]: - y[46] + z[46] <= 0
 mccormick2[47]: - y[47] + z[47] <= 0
 mccormick2[48]: - y[48] + z[48] <= 0
 mccormick2[49]: - y[49] + z[49] <= 0
 mccormick2[50]: - y[50] + z[50] <= 0
 mccormick2[51]: - y[51] + z[51] <= 0
 mccormick2[52]: - y[52] + z[52] <= 0
 mccormick2[53]: - y[53] + z[53] <= 0
 mccormick2[54]: - y[54] + z[54] <= 0
 mccormick2[55]: - y[55] + z[55] <= 0
 mccormick2[56]: - y[56] + z[56] <= 0
 mccormick2[57]: - y[57] + z[57] <= 0
 mccormick2[58]: - y[58] + z[58] <= 0
 mccormick2[59]: - y[59] + z[59] <= 0
 mccormick2[60]: - y[60] + z[60] <= 0
 mccormick2[61]: - y[61] + z[61] <= 0
 mccormick2[62]: - y[62] + z[62] <= 0
 mccormick2[63]: - y[63] + z[63] <= 0
 mccormick2[64]: - y[64] + z[64] <= 0
 mccormick2[65]: - y[65] + z[65] <= 0
 mccormick2[66]: - y[66] + z[66] <= 0
 mccormick2[67]: - y[67] + z[67] <= 0
 mccormick2[68]: - y[68] + z[68] <= 0
 mccormick2[69]: - y[69] + z[69] <= 0
 mccormick2[70]: - y[70] + z[70] <= 0
 mccormick2[71]: - y[71] + z[71] <= 0
 mccormick2[72]: - y[72] + z[72] <= 0
 mccormick2[73]: - y[73] + z[73] <= 0
 mccormick2[74]: - y[74] + z[74] <= 0
 mccormick2[75]: - y[75] + z[75] <= 0
 mccormick2[76]: - y[76] + z[76] <= 0
 mccormick2[77]: - y[77] + z[77] <= 0
 mccormick2[78]: - y[78] + z[78] <= 0
 mccormick2[79]: - y[79] + z[79] <= 0
 mccormick3[0]: y[0] + u[0] - z[0] <= 1
 mccormick3[1]: y[1] + u[1] - z[1] <= 1
 mccormick3[2]: y[2] + u[2] - z[2] <= 1
 mccormick3[3]: y[3] + u[3] - z[3] <= 1
 mccormick3[4]: y[4] + u[4] - z[4] <= 1
 mccormick3[5]: y[5] + u[5] - z[5] <= 1
 mccormick3[6]: y[6] + u[6] - z[6] <= 1
 mccormick3[7]: y[7] + u[7] - z[7] <= 1
 mccormick3[8]: y[8] + u[8] - z[8] <= 1
 mccormick3[9]: y[9] + u[9] - z[9] <= 1
 mccormick3[10]: y[10] + u[10] - z[10] <= 1
 mccormick3[11]: y[11] + u[11] - z[11] <= 1
 mccormick3[12]: y[12] + u[12] - z[12] <= 1
 mccormick3[13]: y[13] + u[13] - z[13] <= 1
 mccormick3[14]: y[14] + u[14] - z[14] <= 1
 mccormick3[15]: y[15] + u[15] - z[15] <= 1
 mccormick3[16]: y[16] + u[16] - z[16] <= 1
 mccormick3[17]: y[17] + u[17] - z[17] <= 1
 mccormick3[18]: y[18] + u[18] - z[18] <= 1
 mccormick3[19]: y[19] + u[19] - z[19] <= 1
 mccormick3[20]: y[20] + u[20] - z[20] <= 1
 mccormick3[21]: y[21] + u[21] - z[21] <= 1
 mccormick3[22]: y[22] + u[22] - z[22] <= 1
 mccormick3[23]: y[23] + u[23] - z[23] <= 1
 mccormick3[24]: y[24] + u[24] - z[24] <= 1
 mccormick3[25]: y[25] + u[25] - z[25] <= 1
 mccormick3[26]: y[26] + u[26] - z[26] <= 1
 mccormick3[27]: y[27] + u[27] - z[27] <= 1
 mccormick3[28]: y[28] + u[28] - z[28] <= 1
 mccormick3[29]: y[29] + u[29] - z[29] <= 1
 mccormick3[30]: y[30] + u[30] - z[30] <= 1
 mccormick3[31]: y[31] + u[31] - z[31] <= 1
 mccormick3[32]: y[32] + u[32] - z[32] <= 1
 mccormick3[33]: y[33] + u[33] - z[33] <= 1
 mccormick3[34]: y[34] + u[34] - z[34] <= 1
 mccormick3[35]: y[35] + u[35] - z[35] <= 1
 mccormick3[36]: y[36] + u[36] - z[36] <= 1
 mccormick3[37]: y[37] + u[37] - z[37] <= 1
 mccormick3[38]: y[38] + u[38] - z[38] <= 1
 mccormick3[39]: y[39] + u[39] - z[39] <= 1
 mccormick3[40]: y[40] + u[40] - z[40] <= 1
 mccormick3[41]: y[41] + u[41] - z[41] <= 1
 mccormick3[42]: y[42] + u[42] - z[42] <= 1
 mccormick3[43]: y[43] + u[43] - z[43] <= 1
 mccormick3[44]: y[44] + u[44] - z[44] <= 1
 mccormick3[45]: y[45] + u[45] - z[45] <= 1
 mccormick3[46]: y[46] + u[46] - z[46] <= 1
 mccormick3[47]: y[47] + u[47] - z[47] <= 1
 mccormick3[48]: y[48] + u[48] - z[48] <= 1
 mccormick3[49]: y[49] + u[49] - z[49] <= 1
 mccormick3[50]: y[50] + u[50] - z[50] <= 1
 mccormick3[51]: y[51] + u[51] - z[51] <= 1
 mccormick3[52]: y[52] + u[52] - z[52] <= 1
 mccormick3[53]: y[53] + u[53] - z[53] <= 1
 mccormick3[54]: y[54] + u[54] - z[54] <= 1
 mccormick3[55]: y[55] + u[55] - z[55] <= 1
 mccormick3[56]: y[56] + u[56] - z[56] <= 1
 mccormick3[57]: y[57] + u[57] - z[57] <= 1
 mccormick3[58]: y[58] + u[58] - z[58] <= 1
 mccormick3[59]: y[59] + u[59] - z[59] <= 1
 mccormick3[60]: y[60] + u[60] - z[60] <= 1
 mccormick3[61]: y[61] + u[61] - z[61] <= 1
 mccormick3[62]: y[62] + u[62] - z[62] <= 1
 mccormick3[63]: y[63] + u[63] - z[63] <= 1
 mccormick3[64]: y[64] + u[64] - z[64] <= 1
 mccormick3[65]: y[65] + u[65] - z[65] <= 1
 mccormick3[66]: y[66] + u[66] - z[66] <= 1
 mccormick3[67]: y[67] + u[67] - z[67] <= 1
 mccormick3[68]: y[68] + u[68] - z[68] <= 1
 mccormick3[69]: y[69] + u[69] - z[69] <= 1
 mccormick3[70]: y[70] + u[70] - z[70] <= 1
 mccormick3[71]: y[71] + u[71] - z[71] <= 1
 mccormick3[72]: y[72] + u[72] - z[72] <= 1
 mccormick3[73]: y[73] + u[73] - z[73] <= 1
 mccormick3[74]: y[74] + u[74] - z[74] <= 1
 mccormick3[75]: y[75] + u[75] - z[75] <= 1
 mccormick3[76]: y[76] + u[76] - z[76] <= 1
 mccormick3[77]: y[77] + u[77] - z[77] <= 1
 mccormick3[78]: y[78] + u[78] - z[78] <= 1
 mccormick3[79]: y[79] + u[79] - z[79] <= 1
Bounds
Binaries
 y[0] y[1] y[2] y[3] y[4] y[5] y[6] y[7] y[8] y[9] y[10] y[11] y[12] y[13]
 y[14] y[15] y[16] y[17] y[18] y[19] y[20] y[21] y[22] y[23] y[24] y[25]
 y[26] y[27] y[28] y[29] y[30] y[31] y[32] y[33] y[34] y[35] y[36] y[37]
 y[38] y[39] y[40] y[41] y[42] y[43] y[44] y[45] y[46] y[47] y[48] y[49]
 y[50] y[51] y[52] y[53] y[54] y[55] y[56] y[57] y[58] y[59] y[60] y[61]
 y[62] y[63] y[64] y[65] y[66] y[67] y[68] y[69] y[70] y[71] y[72] y[73]
 y[74] y[75] y[76] y[77] y[78] y[79] u[0] u[1] u[2] u[3] u[4] u[5] u[6]
 u[7] u[8] u[9] u[10] u[11] u[12] u[13] u[14] u[15] u[16] u[17] u[18] u[19]
 u[20] u[21] u[22] u[23] u[24] u[25] u[26] u[27] u[28] u[29] u[30] u[31]
 u[32] u[33] u[34] u[35] u[36] u[37] u[38] u[39] u[40] u[41] u[42] u[43]
 u[44] u[45] u[46] u[47] u[48] u[49] u[50] u[51] u[52] u[53] u[54] u[55]
 u[56] u[57] u[58] u[59] u[60] u[61] u[62] u[63] u[64] u[65] u[66] u[67]
 u[68] u[69] u[70] u[71] u[72] u[73] u[74] u[75] u[76] u[77] u[78] u[79]
 z[0] z[1] z[2] z[3] z[4] z[5] z[6] z[7] z[8] z[9] z[10] z[11] z[12] z[13]
 z[14] z[15] z[16] z[17] z[18] z[19] z[20] z[21] z[22] z[23] z[24] z[25]
 z[26] z[27] z[28] z[29] z[30] z[31] z[32] z[33] z[34] z[35] z[36] z[37]
 z[38] z[39] z[40] z[41] z[42] z[43] z[44] z[45] z[46] z[47] z[48] z[49]
 z[50] z[51] z[52] z[53] z[54] z[55] z[56] z[57] z[58] z[59] z[60] z[61]
 z[62] z[63] z[64] z[65] z[66] z[67] z[68] z[69] z[70] z[71] z[72] z[73]
 z[74] z[75] z[76] z[77] z[78] z[79]
End
